c Result of efficient AIG-to-CNF conversion using package CNF
p cnf 831 2105
1 821 823 0
-1 -821 0
-1 -823 0
2 829 -1 0
-2 -829 0
-2 1 0
3 827 -2 0
-3 -827 0
-3 2 0
4 825 -3 0
-4 -825 0
-4 3 0
5 -817 818 0
-5 817 0
-5 -818 0
6 819 5 0
-6 -819 0
-6 -5 0
7 820 6 0
-7 -820 0
-7 -6 0
8 -4 7 0
-8 4 0
-8 -7 0
9 -812 813 0
-9 812 0
-9 -813 0
10 814 9 0
-10 -814 0
-10 -9 0
11 815 10 0
-11 -815 0
-11 -10 0
12 818 11 0
-12 -818 0
-12 -11 0
13 816 -12 0
-13 -816 0
-13 12 0
14 813 815 0
-14 -813 0
-14 -815 0
15 811 -14 0
-15 -811 0
-15 14 0
16 -807 808 0
-16 807 0
-16 -808 0
17 809 16 0
-17 -809 0
-17 -16 0
18 810 17 0
-18 -810 0
-18 -17 0
19 -15 18 0
-19 15 0
-19 -18 0
20 -802 803 0
-20 802 0
-20 -803 0
21 804 20 0
-21 -804 0
-21 -20 0
22 805 21 0
-22 -805 0
-22 -21 0
23 812 813 0
-23 -812 0
-23 -813 0
24 811 -23 0
-24 -811 0
-24 23 0
25 810 -24 0
-25 -810 0
-25 24 0
26 808 809 0
-26 -808 0
-26 -809 0
27 807 -26 0
-27 -807 0
-27 26 0
28 806 -27 0
-28 -806 0
-28 27 0
29 -25 -28 0
-29 25 0
-29 28 0
30 22 -29 0
-30 -22 0
-30 29 0
31 -19 30 0
-31 19 0
-31 -30 0
32 -799 800 0
-32 799 0
-32 -800 0
33 805 32 0
-33 -805 0
-33 -32 0
34 803 -33 0
-34 -803 0
-34 33 0
35 801 -34 0
-35 -801 0
-35 34 0
36 798 800 0
-36 -798 0
-36 -800 0
37 -35 36 0
-37 35 0
-37 -36 0
38 -15 -37 0
-38 15 0
-38 37 0
39 18 -38 0
-39 -18 0
-39 38 0
40 31 39 0
-40 -31 0
-40 -39 0
41 -13 -40 0
-41 13 0
-41 40 0
42 820 -41 0
-42 -820 0
-42 41 0
43 -8 42 0
-43 8 0
-43 -42 0
44 -822 823 0
-44 822 0
-44 -823 0
45 824 44 0
-45 -824 0
-45 -44 0
46 825 45 0
-46 -825 0
-46 -45 0
47 826 46 0
-47 -826 0
-47 -46 0
48 827 47 0
-48 -827 0
-48 -47 0
49 828 48 0
-49 -828 0
-49 -48 0
50 829 49 0
-50 -829 0
-50 -49 0
51 43 50 0
-51 -43 0
-51 -50 0
52 -792 793 0
-52 792 0
-52 -793 0
53 794 52 0
-53 -794 0
-53 -52 0
54 795 53 0
-54 -795 0
-54 -53 0
55 796 54 0
-55 -796 0
-55 -54 0
56 -777 778 0
-56 777 0
-56 -778 0
57 779 56 0
-57 -779 0
-57 -56 0
58 780 57 0
-58 -780 0
-58 -57 0
59 785 58 0
-59 -785 0
-59 -58 0
60 -772 773 0
-60 772 0
-60 -773 0
61 774 60 0
-61 -774 0
-61 -60 0
62 775 61 0
-62 -775 0
-62 -61 0
63 780 62 0
-63 -780 0
-63 -62 0
64 778 -63 0
-64 -778 0
-64 63 0
65 776 -64 0
-65 -776 0
-65 64 0
66 -59 65 0
-66 59 0
-66 -65 0
67 783 -66 0
-67 -783 0
-67 66 0
68 781 -67 0
-68 -781 0
-68 67 0
69 -782 783 0
-69 782 0
-69 -783 0
70 784 69 0
-70 -784 0
-70 -69 0
71 785 70 0
-71 -785 0
-71 -70 0
72 788 71 0
-72 -788 0
-72 -71 0
73 786 -72 0
-73 -786 0
-73 72 0
74 68 -73 0
-74 -68 0
-74 73 0
75 -55 -74 0
-75 55 0
-75 74 0
76 790 -75 0
-76 -790 0
-76 75 0
77 768 769 0
-77 -768 0
-77 -769 0
78 767 -77 0
-78 -767 0
-78 77 0
79 766 -78 0
-79 -766 0
-79 78 0
80 -762 763 0
-80 762 0
-80 -763 0
81 764 80 0
-81 -764 0
-81 -80 0
82 765 81 0
-82 -765 0
-82 -81 0
83 772 773 0
-83 -772 0
-83 -773 0
84 771 -83 0
-84 -771 0
-84 83 0
85 770 -84 0
-85 -770 0
-85 84 0
86 82 -85 0
-86 -82 0
-86 85 0
87 -79 -86 0
-87 79 0
-87 86 0
88 -742 743 0
-88 742 0
-88 -743 0
89 744 88 0
-89 -744 0
-89 -88 0
90 745 89 0
-90 -745 0
-90 -89 0
91 -752 753 0
-91 752 0
-91 -753 0
92 754 91 0
-92 -754 0
-92 -91 0
93 755 92 0
-93 -755 0
-93 -92 0
94 90 93 0
-94 -90 0
-94 -93 0
95 748 -94 0
-95 -748 0
-95 94 0
96 746 -95 0
-96 -746 0
-96 95 0
97 758 760 0
-97 -758 0
-97 -760 0
98 756 -97 0
-98 -756 0
-98 97 0
99 -96 -98 0
-99 96 0
-99 98 0
100 750 -99 0
-100 -750 0
-100 99 0
101 -732 733 0
-101 732 0
-101 -733 0
102 734 101 0
-102 -734 0
-102 -101 0
103 735 102 0
-103 -735 0
-103 -102 0
104 -727 728 0
-104 727 0
-104 -728 0
105 729 104 0
-105 -729 0
-105 -104 0
106 730 105 0
-106 -730 0
-106 -105 0
107 733 735 0
-107 -733 0
-107 -735 0
108 731 -107 0
-108 -731 0
-108 107 0
109 106 -108 0
-109 -106 0
-109 108 0
110 -722 723 0
-110 722 0
-110 -723 0
111 724 110 0
-111 -724 0
-111 -110 0
112 725 111 0
-112 -725 0
-112 -111 0
113 730 112 0
-113 -730 0
-113 -112 0
114 728 -113 0
-114 -728 0
-114 113 0
115 726 -114 0
-115 -726 0
-115 114 0
116 -109 115 0
-116 109 0
-116 -115 0
117 738 740 0
-117 -738 0
-117 -740 0
118 736 -117 0
-118 -736 0
-118 117 0
119 116 -118 0
-119 -116 0
-119 118 0
120 103 -119 0
-120 -103 0
-120 119 0
121 -717 718 0
-121 717 0
-121 -718 0
122 719 121 0
-122 -719 0
-122 -121 0
123 720 122 0
-123 -720 0
-123 -122 0
124 106 123 0
-124 -106 0
-124 -123 0
125 723 -124 0
-125 -723 0
-125 124 0
126 721 -125 0
-126 -721 0
-126 125 0
127 -108 -126 0
-127 108 0
-127 126 0
128 725 -127 0
-128 -725 0
-128 127 0
129 -703 704 0
-129 703 0
-129 -704 0
130 705 129 0
-130 -705 0
-130 -129 0
131 706 130 0
-131 -706 0
-131 -130 0
132 707 131 0
-132 -707 0
-132 -131 0
133 710 132 0
-133 -710 0
-133 -132 0
134 708 -133 0
-134 -708 0
-134 133 0
135 -709 710 0
-135 709 0
-135 -710 0
136 715 135 0
-136 -715 0
-136 -135 0
137 713 -136 0
-137 -713 0
-137 136 0
138 711 -137 0
-138 -711 0
-138 137 0
139 134 -138 0
-139 -134 0
-139 138 0
140 -712 713 0
-140 712 0
-140 -713 0
141 714 140 0
-141 -714 0
-141 -140 0
142 715 141 0
-142 -715 0
-142 -141 0
143 720 142 0
-143 -720 0
-143 -142 0
144 718 -143 0
-144 -718 0
-144 143 0
145 139 -144 0
-145 -139 0
-145 144 0
146 716 -145 0
-146 -716 0
-146 145 0
147 -128 146 0
-147 128 0
-147 -146 0
148 -120 147 0
-148 120 0
-148 -147 0
149 -737 738 0
-149 737 0
-149 -738 0
150 739 149 0
-150 -739 0
-150 -149 0
151 740 150 0
-151 -740 0
-151 -150 0
152 745 151 0
-152 -745 0
-152 -151 0
153 743 -152 0
-153 -743 0
-153 152 0
154 741 -153 0
-154 -741 0
-154 153 0
155 148 -154 0
-155 -148 0
-155 154 0
156 -100 155 0
-156 100 0
-156 -155 0
157 -757 758 0
-157 757 0
-157 -758 0
158 759 157 0
-158 -759 0
-158 -157 0
159 760 158 0
-159 -760 0
-159 -158 0
160 93 -98 0
-160 -93 0
-160 98 0
161 -747 748 0
-161 747 0
-161 -748 0
162 749 161 0
-162 -749 0
-162 -161 0
163 750 162 0
-163 -750 0
-163 -162 0
164 755 163 0
-164 -755 0
-164 -163 0
165 753 -164 0
-165 -753 0
-165 164 0
166 751 -165 0
-166 -751 0
-166 165 0
167 -160 166 0
-167 160 0
-167 -166 0
168 763 765 0
-168 -763 0
-168 -765 0
169 761 -168 0
-169 -761 0
-169 168 0
170 167 -169 0
-170 -167 0
-170 169 0
171 159 -170 0
-171 -159 0
-171 170 0
172 156 -171 0
-172 -156 0
-172 171 0
173 -87 172 0
-173 87 0
-173 -172 0
174 -767 768 0
-174 767 0
-174 -768 0
175 769 174 0
-175 -769 0
-175 -174 0
176 770 175 0
-176 -770 0
-176 -175 0
177 775 176 0
-177 -775 0
-177 -176 0
178 773 -177 0
-178 -773 0
-178 177 0
179 771 -178 0
-179 -771 0
-179 178 0
180 783 -59 0
-180 -783 0
-180 59 0
181 781 -180 0
-181 -781 0
-181 180 0
182 -179 -181 0
-182 179 0
-182 181 0
183 173 -182 0
-183 -173 0
-183 182 0
184 -76 183 0
-184 76 0
-184 -183 0
185 -787 788 0
-185 787 0
-185 -788 0
186 789 185 0
-186 -789 0
-186 -185 0
187 790 186 0
-187 -790 0
-187 -186 0
188 795 187 0
-188 -795 0
-188 -187 0
189 793 -188 0
-189 -793 0
-189 188 0
190 791 -189 0
-190 -791 0
-190 189 0
191 -55 190 0
-191 55 0
-191 -190 0
192 -19 -35 0
-192 19 0
-192 35 0
193 191 -192 0
-193 -191 0
-193 192 0
194 -8 -193 0
-194 8 0
-194 193 0
195 797 -194 0
-195 -797 0
-195 194 0
196 184 -195 0
-196 -184 0
-196 195 0
197 -51 196 0
-197 51 0
-197 -196 0
198 822 823 0
-198 -822 0
-198 -823 0
199 824 825 0
-199 -824 0
-199 -825 0
200 198 -199 0
-200 -198 0
-200 199 0
201 827 200 0
-201 -827 0
-201 -200 0
202 826 -201 0
-202 -826 0
-202 201 0
203 829 202 0
-203 -829 0
-203 -202 0
204 828 -203 0
-204 -828 0
-204 203 0
205 820 821 0
-205 -820 0
-205 -821 0
206 828 -205 0
-206 -828 0
-206 205 0
207 825 -206 0
-207 -825 0
-207 206 0
208 824 -207 0
-208 -824 0
-208 207 0
209 829 -208 0
-209 -829 0
-209 208 0
210 814 815 0
-210 -814 0
-210 -815 0
211 23 -210 0
-211 -23 0
-211 210 0
212 817 211 0
-212 -817 0
-212 -211 0
213 816 -212 0
-213 -816 0
-213 212 0
214 819 213 0
-214 -819 0
-214 -213 0
215 818 -214 0
-215 -818 0
-215 214 0
216 804 805 0
-216 -804 0
-216 -805 0
217 802 803 0
-217 -802 0
-217 -803 0
218 -216 217 0
-218 216 0
-218 -217 0
219 807 218 0
-219 -807 0
-219 -218 0
220 806 -219 0
-220 -806 0
-220 219 0
221 809 220 0
-221 -809 0
-221 -220 0
222 808 -221 0
-222 -808 0
-222 221 0
223 810 811 0
-223 -810 0
-223 -811 0
224 818 -223 0
-224 -818 0
-224 223 0
225 815 -224 0
-225 -815 0
-225 224 0
226 814 -225 0
-226 -814 0
-226 225 0
227 819 -226 0
-227 -819 0
-227 226 0
228 222 -227 0
-228 -222 0
-228 227 0
229 215 228 0
-229 -215 0
-229 -228 0
230 -209 -229 0
-230 209 0
-230 229 0
231 204 230 0
-231 -204 0
-231 -230 0
232 796 797 0
-232 -796 0
-232 -797 0
233 794 795 0
-233 -794 0
-233 -795 0
234 -232 233 0
-234 232 0
-234 -233 0
235 799 234 0
-235 -799 0
-235 -234 0
236 798 -235 0
-236 -798 0
-236 235 0
237 793 -232 0
-237 -793 0
-237 232 0
238 792 -237 0
-238 -792 0
-238 237 0
239 788 789 0
-239 -788 0
-239 -789 0
240 786 787 0
-240 -786 0
-240 -787 0
241 -239 240 0
-241 239 0
-241 -240 0
242 791 241 0
-242 -791 0
-242 -241 0
243 790 -242 0
-243 -790 0
-243 242 0
244 -238 243 0
-244 238 0
-244 -243 0
245 -236 244 0
-245 236 0
-245 -244 0
246 766 767 0
-246 -766 0
-246 -767 0
247 -77 246 0
-247 77 0
-247 -246 0
248 771 247 0
-248 -771 0
-248 -247 0
249 770 -248 0
-249 -770 0
-249 248 0
250 773 249 0
-250 -773 0
-250 -249 0
251 772 -250 0
-251 -772 0
-251 250 0
252 774 775 0
-252 -774 0
-252 -775 0
253 782 -252 0
-253 -782 0
-253 252 0
254 779 -253 0
-254 -779 0
-254 253 0
255 778 -254 0
-255 -778 0
-255 254 0
256 783 -255 0
-256 -783 0
-256 255 0
257 251 -256 0
-257 -251 0
-257 256 0
258 755 758 0
-258 -755 0
-258 -758 0
259 754 -258 0
-259 -754 0
-259 258 0
260 763 -259 0
-260 -763 0
-260 259 0
261 762 -260 0
-261 -762 0
-261 260 0
262 759 -261 0
-262 -759 0
-262 261 0
263 746 747 0
-263 -746 0
-263 -747 0
264 748 749 0
-264 -748 0
-264 -749 0
265 263 -264 0
-265 -263 0
-265 264 0
266 751 265 0
-266 -751 0
-266 -265 0
267 750 -266 0
-267 -750 0
-267 266 0
268 753 267 0
-268 -753 0
-268 -267 0
269 752 -268 0
-269 -752 0
-269 268 0
270 -262 269 0
-270 262 0
-270 -269 0
271 726 727 0
-271 -726 0
-271 -727 0
272 728 729 0
-272 -728 0
-272 -729 0
273 271 -272 0
-273 -271 0
-273 272 0
274 731 273 0
-274 -731 0
-274 -273 0
275 730 -274 0
-275 -730 0
-275 274 0
276 733 275 0
-276 -733 0
-276 -275 0
277 732 -276 0
-277 -732 0
-277 276 0
278 734 735 0
-278 -734 0
-278 -735 0
279 742 -278 0
-279 -742 0
-279 278 0
280 739 -279 0
-280 -739 0
-280 279 0
281 738 -280 0
-281 -738 0
-281 280 0
282 743 -281 0
-282 -743 0
-282 281 0
283 277 -282 0
-283 -277 0
-283 282 0
284 725 728 0
-284 -725 0
-284 -728 0
285 724 -284 0
-285 -724 0
-285 284 0
286 733 -285 0
-286 -733 0
-286 285 0
287 732 -286 0
-287 -732 0
-287 286 0
288 729 -287 0
-288 -729 0
-288 287 0
289 716 717 0
-289 -716 0
-289 -717 0
290 718 719 0
-290 -718 0
-290 -719 0
291 289 -290 0
-291 -289 0
-291 290 0
292 721 291 0
-292 -721 0
-292 -291 0
293 720 -292 0
-293 -720 0
-293 292 0
294 723 293 0
-294 -723 0
-294 -293 0
295 722 -294 0
-295 -722 0
-295 294 0
296 -288 295 0
-296 288 0
-296 -295 0
297 714 715 0
-297 -714 0
-297 -715 0
298 722 -297 0
-298 -722 0
-298 297 0
299 719 -298 0
-299 -719 0
-299 298 0
300 718 -299 0
-300 -718 0
-300 299 0
301 723 -300 0
-301 -723 0
-301 300 0
302 712 713 0
-302 -712 0
-302 -713 0
303 711 -302 0
-303 -711 0
-303 302 0
304 710 -303 0
-304 -710 0
-304 303 0
305 704 705 0
-305 -704 0
-305 -705 0
306 706 707 0
-306 -706 0
-306 -707 0
307 305 -306 0
-307 -305 0
-307 306 0
308 709 307 0
-308 -709 0
-308 -307 0
309 708 -308 0
-309 -708 0
-309 308 0
310 -304 309 0
-310 304 0
-310 -309 0
311 -302 310 0
-311 302 0
-311 -310 0
312 -301 311 0
-312 301 0
-312 -311 0
313 -296 312 0
-313 296 0
-313 -312 0
314 -283 313 0
-314 283 0
-314 -313 0
315 736 737 0
-315 -736 0
-315 -737 0
316 743 315 0
-316 -743 0
-316 -315 0
317 742 -316 0
-317 -742 0
-317 316 0
318 739 -317 0
-318 -739 0
-318 317 0
319 738 -318 0
-319 -738 0
-319 318 0
320 740 741 0
-320 -740 0
-320 -741 0
321 742 743 0
-321 -742 0
-321 -743 0
322 320 -321 0
-322 -320 0
-322 321 0
323 744 745 0
-323 -744 0
-323 -745 0
324 752 -323 0
-324 -752 0
-324 323 0
325 749 -324 0
-325 -749 0
-325 324 0
326 748 -325 0
-326 -748 0
-326 325 0
327 753 -326 0
-327 -753 0
-327 326 0
328 322 -327 0
-328 -322 0
-328 327 0
329 319 -328 0
-329 -319 0
-329 328 0
330 314 -329 0
-330 -314 0
-330 329 0
331 -270 330 0
-331 270 0
-331 -330 0
332 760 761 0
-332 -760 0
-332 -761 0
333 762 763 0
-333 -762 0
-333 -763 0
334 332 -333 0
-334 -332 0
-334 333 0
335 765 -77 0
-335 -765 0
-335 77 0
336 764 -335 0
-336 -764 0
-336 335 0
337 334 -336 0
-337 -334 0
-337 336 0
338 773 -337 0
-338 -773 0
-338 337 0
339 772 -338 0
-339 -772 0
-339 338 0
340 756 757 0
-340 -756 0
-340 -757 0
341 763 340 0
-341 -763 0
-341 -340 0
342 762 -341 0
-342 -762 0
-342 341 0
343 759 -342 0
-343 -759 0
-343 342 0
344 758 -343 0
-344 -758 0
-344 343 0
345 -339 344 0
-345 339 0
-345 -344 0
346 331 -345 0
-346 -331 0
-346 345 0
347 -257 346 0
-347 257 0
-347 -346 0
348 776 777 0
-348 -776 0
-348 -777 0
349 778 779 0
-349 -778 0
-349 -779 0
350 348 -349 0
-350 -348 0
-350 349 0
351 781 350 0
-351 -781 0
-351 -350 0
352 780 -351 0
-352 -780 0
-352 351 0
353 783 352 0
-353 -783 0
-353 -352 0
354 782 -353 0
-354 -782 0
-354 353 0
355 785 -239 0
-355 -785 0
-355 239 0
356 784 -355 0
-356 -784 0
-356 355 0
357 -238 -356 0
-357 238 0
-357 356 0
358 354 -357 0
-358 -354 0
-358 357 0
359 347 -358 0
-359 -347 0
-359 358 0
360 -245 359 0
-360 245 0
-360 -359 0
361 801 -26 0
-361 -801 0
-361 26 0
362 800 -361 0
-362 -800 0
-362 361 0
363 -216 -362 0
-363 216 0
-363 362 0
364 215 -363 0
-364 -215 0
-364 363 0
365 -209 -364 0
-365 209 0
-365 364 0
366 360 -365 0
-366 -360 0
-366 365 0
367 -231 366 0
-367 231 0
-367 -366 0
368 828 829 0
-368 -828 0
-368 -829 0
369 827 -368 0
-369 -827 0
-369 368 0
370 826 -369 0
-370 -826 0
-370 369 0
371 819 -205 0
-371 -819 0
-371 205 0
372 818 -371 0
-372 -818 0
-372 371 0
373 795 -232 0
-373 -795 0
-373 232 0
374 794 -373 0
-374 -794 0
-374 373 0
375 799 800 0
-375 -799 0
-375 -800 0
376 798 -375 0
-376 -798 0
-376 375 0
377 374 -376 0
-377 -374 0
-377 376 0
378 801 -377 0
-378 -801 0
-378 377 0
379 803 -216 0
-379 -803 0
-379 216 0
380 802 -379 0
-380 -802 0
-380 379 0
381 378 -380 0
-381 -378 0
-381 380 0
382 -28 381 0
-382 28 0
-382 -381 0
383 792 793 0
-383 -792 0
-383 -793 0
384 791 -383 0
-384 -791 0
-384 383 0
385 790 -384 0
-385 -790 0
-385 384 0
386 800 801 0
-386 -800 0
-386 -801 0
387 799 -386 0
-387 -799 0
-387 386 0
388 798 -387 0
-388 -798 0
-388 387 0
389 -385 -388 0
-389 385 0
-389 388 0
390 -28 -389 0
-390 28 0
-390 389 0
391 382 390 0
-391 -382 0
-391 -390 0
392 -372 -391 0
-392 372 0
-392 391 0
393 -25 -392 0
-393 25 0
-393 392 0
394 816 817 0
-394 -816 0
-394 -817 0
395 815 -394 0
-395 -815 0
-395 394 0
396 814 -395 0
-396 -814 0
-396 395 0
397 819 820 0
-397 -819 0
-397 -820 0
398 818 -397 0
-398 -818 0
-398 397 0
399 396 -398 0
-399 -396 0
-399 398 0
400 821 -399 0
-400 -821 0
-400 399 0
401 -199 400 0
-401 199 0
-401 -400 0
402 823 -401 0
-402 -823 0
-402 401 0
403 822 -402 0
-403 -822 0
-403 402 0
404 393 -403 0
-404 -393 0
-404 403 0
405 -370 404 0
-405 370 0
-405 -404 0
406 784 785 0
-406 -784 0
-406 -785 0
407 783 -406 0
-407 -783 0
-407 406 0
408 782 -407 0
-408 -782 0
-408 407 0
409 775 -348 0
-409 -775 0
-409 348 0
410 774 -409 0
-410 -774 0
-410 409 0
411 752 753 0
-411 -752 0
-411 -753 0
412 751 -411 0
-412 -751 0
-412 411 0
413 750 -412 0
-413 -750 0
-413 412 0
414 759 -332 0
-414 -759 0
-414 332 0
415 758 -414 0
-415 -758 0
-415 414 0
416 -413 -415 0
-416 413 0
-416 415 0
417 -410 -416 0
-417 410 0
-417 416 0
418 -79 -417 0
-418 79 0
-418 417 0
419 743 -323 0
-419 -743 0
-419 323 0
420 742 -419 0
-420 -742 0
-420 419 0
421 735 -315 0
-421 -735 0
-421 315 0
422 734 -421 0
-422 -734 0
-422 421 0
423 732 733 0
-423 -732 0
-423 -733 0
424 731 -423 0
-424 -731 0
-424 423 0
425 730 -424 0
-425 -730 0
-425 424 0
426 727 -272 0
-426 -727 0
-426 272 0
427 726 -426 0
-427 -726 0
-427 426 0
428 719 720 0
-428 -719 0
-428 -720 0
429 718 -428 0
-429 -718 0
-429 428 0
430 723 -429 0
-430 -723 0
-430 429 0
431 722 -430 0
-431 -722 0
-431 430 0
432 721 -431 0
-432 -721 0
-432 431 0
433 708 709 0
-433 -708 0
-433 -709 0
434 707 -433 0
-434 -707 0
-434 433 0
435 706 -434 0
-435 -706 0
-435 434 0
436 711 712 0
-436 -711 0
-436 -712 0
437 710 -436 0
-437 -710 0
-437 436 0
438 435 -437 0
-438 -435 0
-438 437 0
439 713 -438 0
-439 -713 0
-439 438 0
440 715 -289 0
-440 -715 0
-440 289 0
441 714 -440 0
-441 -714 0
-441 440 0
442 439 -441 0
-442 -439 0
-442 441 0
443 -432 442 0
-443 432 0
-443 -442 0
444 724 725 0
-444 -724 0
-444 -725 0
445 723 -444 0
-445 -723 0
-445 444 0
446 722 -445 0
-446 -722 0
-446 445 0
447 443 -446 0
-447 -443 0
-447 446 0
448 -427 447 0
-448 427 0
-448 -447 0
449 -425 448 0
-449 425 0
-449 -448 0
450 -422 449 0
-450 422 0
-450 -449 0
451 739 -320 0
-451 -739 0
-451 320 0
452 738 -451 0
-452 -738 0
-452 451 0
453 450 -452 0
-453 -450 0
-453 452 0
454 -420 453 0
-454 420 0
-454 -453 0
455 747 -264 0
-455 -747 0
-455 264 0
456 746 -455 0
-456 -746 0
-456 455 0
457 454 -456 0
-457 -454 0
-457 456 0
458 -418 457 0
-458 418 0
-458 -457 0
459 780 781 0
-459 -780 0
-459 -781 0
460 779 -459 0
-460 -779 0
-460 459 0
461 778 -460 0
-461 -778 0
-461 460 0
462 755 -340 0
-462 -755 0
-462 340 0
463 754 -462 0
-463 -754 0
-463 462 0
464 759 760 0
-464 -759 0
-464 -760 0
465 758 -464 0
-465 -758 0
-465 464 0
466 463 -465 0
-466 -463 0
-466 465 0
467 761 -466 0
-467 -761 0
-467 466 0
468 764 765 0
-468 -764 0
-468 -765 0
469 763 -468 0
-469 -763 0
-469 468 0
470 762 -469 0
-470 -762 0
-470 469 0
471 467 -470 0
-471 -467 0
-471 470 0
472 -79 471 0
-472 79 0
-472 -471 0
473 -85 472 0
-473 85 0
-473 -472 0
474 -410 473 0
-474 410 0
-474 -473 0
475 -461 474 0
-475 461 0
-475 -474 0
476 458 -475 0
-476 -458 0
-476 475 0
477 -408 476 0
-477 408 0
-477 -476 0
478 787 -239 0
-478 -787 0
-478 239 0
479 786 -478 0
-479 -786 0
-479 478 0
480 382 -479 0
-480 -382 0
-480 479 0
481 -372 -480 0
-481 372 0
-481 480 0
482 -25 -481 0
-482 25 0
-482 481 0
483 -370 -482 0
-483 370 0
-483 482 0
484 477 -483 0
-484 -477 0
-484 483 0
485 405 484 0
-485 -405 0
-485 -484 0
486 827 828 0
-486 -827 0
-486 -828 0
487 826 -486 0
-487 -826 0
-487 486 0
488 -198 -487 0
-488 198 0
-488 487 0
489 -199 -488 0
-489 199 0
-489 488 0
490 829 -489 0
-490 -829 0
-490 489 0
491 -372 -396 0
-491 372 0
-491 396 0
492 811 812 0
-492 -811 0
-492 -812 0
493 810 -492 0
-493 -810 0
-493 492 0
494 807 808 0
-494 -807 0
-494 -808 0
495 806 -494 0
-495 -806 0
-495 494 0
496 -493 -495 0
-496 493 0
-496 495 0
497 813 -496 0
-497 -813 0
-497 496 0
498 809 -497 0
-498 -809 0
-498 497 0
499 -491 498 0
-499 491 0
-499 -498 0
500 -490 499 0
-500 490 0
-500 -499 0
501 -410 -461 0
-501 410 0
-501 461 0
502 -385 -501 0
-502 385 0
-502 501 0
503 -374 -502 0
-503 374 0
-503 502 0
504 -415 -470 0
-504 415 0
-504 470 0
505 -422 -452 0
-505 422 0
-505 452 0
506 732 -444 0
-506 -732 0
-506 444 0
507 729 -506 0
-507 -729 0
-507 506 0
508 728 -507 0
-508 -728 0
-508 507 0
509 733 -508 0
-509 -733 0
-509 508 0
510 715 716 0
-510 -715 0
-510 -716 0
511 714 -510 0
-511 -714 0
-511 510 0
512 -437 -511 0
-512 437 0
-512 511 0
513 717 -512 0
-513 -717 0
-513 512 0
514 713 -513 0
-514 -713 0
-514 513 0
515 722 -290 0
-515 -722 0
-515 290 0
516 721 -515 0
-516 -721 0
-516 515 0
517 720 -516 0
-517 -720 0
-517 516 0
518 723 -517 0
-518 -723 0
-518 517 0
519 514 -518 0
-519 -514 0
-519 518 0
520 -509 -519 0
-520 509 0
-520 519 0
521 -425 520 0
-521 425 0
-521 -520 0
522 -427 -521 0
-522 427 0
-522 521 0
523 -505 522 0
-523 505 0
-523 -522 0
524 -420 -456 0
-524 420 0
-524 456 0
525 523 -524 0
-525 -523 0
-525 524 0
526 -413 525 0
-526 413 0
-526 -525 0
527 -463 -526 0
-527 463 0
-527 526 0
528 -504 527 0
-528 504 0
-528 -527 0
529 -79 -85 0
-529 79 0
-529 85 0
530 528 -529 0
-530 -528 0
-530 529 0
531 -503 530 0
-531 503 0
-531 -530 0
532 783 784 0
-532 -783 0
-532 -784 0
533 782 -532 0
-533 -782 0
-533 532 0
534 787 788 0
-534 -787 0
-534 -788 0
535 786 -534 0
-535 -786 0
-535 534 0
536 -533 -535 0
-536 533 0
-536 535 0
537 789 -536 0
-537 -789 0
-537 536 0
538 785 -537 0
-538 -785 0
-538 537 0
539 -374 -385 0
-539 374 0
-539 385 0
540 538 -539 0
-540 -538 0
-540 539 0
541 -388 540 0
-541 388 0
-541 -540 0
542 -380 -541 0
-542 380 0
-542 541 0
543 -396 -542 0
-543 396 0
-543 542 0
544 -372 -543 0
-544 372 0
-544 543 0
545 531 -544 0
-545 -531 0
-545 544 0
546 -500 545 0
-546 500 0
-546 -545 0
547 -198 -491 0
-547 198 0
-547 491 0
548 -199 -547 0
-548 199 0
-548 547 0
549 -370 -548 0
-549 370 0
-549 548 0
550 -380 -388 0
-550 380 0
-550 388 0
551 -25 -550 0
-551 25 0
-551 550 0
552 -28 -551 0
-552 28 0
-552 551 0
553 -413 -463 0
-553 413 0
-553 463 0
554 -415 -553 0
-554 415 0
-554 553 0
555 -470 -554 0
-555 470 0
-555 554 0
556 -420 -505 0
-556 420 0
-556 505 0
557 -456 -556 0
-557 456 0
-557 556 0
558 -425 -518 0
-558 425 0
-558 518 0
559 -427 -558 0
-559 427 0
-559 558 0
560 -444 -559 0
-560 444 0
-560 559 0
561 -557 560 0
-561 557 0
-561 -560 0
562 -555 561 0
-562 555 0
-562 -561 0
563 -408 -479 0
-563 408 0
-563 479 0
564 -85 -563 0
-564 85 0
-564 563 0
565 -79 -564 0
-565 79 0
-565 564 0
566 -503 -565 0
-566 503 0
-566 565 0
567 -552 -566 0
-567 552 0
-567 566 0
568 -549 -567 0
-568 549 0
-568 567 0
569 562 -568 0
-569 -562 0
-569 568 0
570 -539 569 0
-570 539 0
-570 -569 0
571 -538 -570 0
-571 538 0
-571 570 0
572 -552 571 0
-572 552 0
-572 -571 0
573 -549 572 0
-573 549 0
-573 -572 0
574 -503 -538 0
-574 503 0
-574 538 0
575 -420 -452 0
-575 420 0
-575 452 0
576 -456 -575 0
-576 456 0
-576 575 0
577 -415 -463 0
-577 415 0
-577 463 0
578 -470 -577 0
-578 470 0
-578 577 0
579 -576 -578 0
-579 576 0
-579 578 0
580 -413 -579 0
-580 413 0
-580 579 0
581 -422 -580 0
-581 422 0
-581 580 0
582 -574 581 0
-582 574 0
-582 -581 0
583 -529 -582 0
-583 529 0
-583 582 0
584 -552 583 0
-584 552 0
-584 -583 0
585 -549 -584 0
-585 549 0
-585 584 0
586 720 721 0
-586 -720 0
-586 -721 0
587 719 -586 0
-587 -719 0
-587 586 0
588 718 -587 0
-588 -718 0
-588 587 0
589 722 -588 0
-589 -722 0
-589 588 0
590 -425 -589 0
-590 425 0
-590 589 0
591 -444 -590 0
-591 444 0
-591 590 0
592 723 -591 0
-592 -723 0
-592 591 0
593 -427 -592 0
-593 427 0
-593 592 0
594 -555 -557 0
-594 555 0
-594 557 0
595 -566 -594 0
-595 566 0
-595 594 0
596 -552 -595 0
-596 552 0
-596 595 0
597 -549 -596 0
-597 549 0
-597 596 0
598 703 -305 0
-598 -703 0
-598 305 0
599 702 -598 0
-599 -702 0
-599 598 0
600 -441 -599 0
-600 441 0
-600 599 0
601 -304 -600 0
-601 304 0
-601 600 0
602 -597 -601 0
-602 597 0
-602 601 0
603 -593 -602 0
-603 593 0
-603 602 0
604 -435 -603 0
-604 435 0
-604 603 0
605 50 197 0
-605 -50 0
-605 -197 0
606 -50 -197 0
-606 50 0
-606 197 0
607 605 606 0
-607 -605 0
-607 -606 0
608 -367 605 0
-608 367 0
-608 -605 0
609 367 -605 0
-609 -367 0
-609 605 0
610 608 609 0
-610 -608 0
-610 -609 0
611 204 -610 0
-611 -204 0
-611 610 0
612 -204 610 0
-612 204 0
-612 -610 0
613 611 612 0
-613 -611 0
-613 -612 0
614 204 367 0
-614 -204 0
-614 -367 0
615 -204 -367 0
-615 204 0
-615 367 0
616 -605 615 0
-616 605 0
-616 -615 0
617 605 -614 0
-617 -605 0
-617 614 0
618 616 617 0
-618 -616 0
-618 -617 0
619 -485 -618 0
-619 485 0
-619 618 0
620 485 618 0
-620 -485 0
-620 -618 0
621 619 620 0
-621 -619 0
-621 -620 0
622 -485 -621 0
-622 485 0
-622 621 0
623 485 621 0
-623 -485 0
-623 -621 0
624 622 623 0
-624 -622 0
-624 -623 0
625 546 -618 0
-625 -546 0
-625 618 0
626 -546 618 0
-626 546 0
-626 -618 0
627 625 626 0
-627 -625 0
-627 -626 0
628 546 -627 0
-628 -546 0
-628 627 0
629 -546 627 0
-629 546 0
-629 -627 0
630 628 629 0
-630 -628 0
-630 -629 0
631 573 -618 0
-631 -573 0
-631 618 0
632 -573 618 0
-632 573 0
-632 -618 0
633 631 632 0
-633 -631 0
-633 -632 0
634 573 -633 0
-634 -573 0
-634 633 0
635 -573 633 0
-635 573 0
-635 -633 0
636 634 635 0
-636 -634 0
-636 -635 0
637 585 -618 0
-637 -585 0
-637 618 0
638 -585 618 0
-638 585 0
-638 -618 0
639 637 638 0
-639 -637 0
-639 -638 0
640 585 -639 0
-640 -585 0
-640 639 0
641 -585 639 0
-641 585 0
-641 -639 0
642 640 641 0
-642 -640 0
-642 -641 0
643 568 -618 0
-643 -568 0
-643 618 0
644 -568 618 0
-644 568 0
-644 -618 0
645 643 644 0
-645 -643 0
-645 -644 0
646 568 -645 0
-646 -568 0
-646 645 0
647 -568 645 0
-647 568 0
-647 -645 0
648 646 647 0
-648 -646 0
-648 -647 0
649 604 -618 0
-649 -604 0
-649 618 0
650 -604 618 0
-650 604 0
-650 -618 0
651 649 650 0
-651 -649 0
-651 -650 0
652 604 -651 0
-652 -604 0
-652 651 0
653 -604 651 0
-653 604 0
-653 -651 0
654 652 653 0
-654 -652 0
-654 -653 0
655 -607 -613 0
-655 607 0
-655 613 0
656 -624 655 0
-656 624 0
-656 -655 0
657 624 -655 0
-657 -624 0
-657 655 0
658 656 657 0
-658 -656 0
-658 -657 0
659 -624 -655 0
-659 624 0
-659 655 0
660 -630 659 0
-660 630 0
-660 -659 0
661 630 -659 0
-661 -630 0
-661 659 0
662 660 661 0
-662 -660 0
-662 -661 0
663 -630 -659 0
-663 630 0
-663 659 0
664 -636 663 0
-664 636 0
-664 -663 0
665 636 -663 0
-665 -636 0
-665 663 0
666 664 665 0
-666 -664 0
-666 -665 0
667 -636 -663 0
-667 636 0
-667 663 0
668 -642 667 0
-668 642 0
-668 -667 0
669 642 -667 0
-669 -642 0
-669 667 0
670 668 669 0
-670 -668 0
-670 -669 0
671 -642 -667 0
-671 642 0
-671 667 0
672 -648 671 0
-672 648 0
-672 -671 0
673 648 -671 0
-673 -648 0
-673 671 0
674 672 673 0
-674 -672 0
-674 -673 0
675 -648 -671 0
-675 648 0
-675 671 0
676 -654 675 0
-676 654 0
-676 -675 0
677 654 -675 0
-677 -654 0
-677 675 0
678 676 677 0
-678 -676 0
-678 -677 0
679 -618 624 0
-679 618 0
-679 -624 0
680 618 658 0
-680 -618 0
-680 -658 0
681 679 680 0
-681 -679 0
-681 -680 0
682 -618 630 0
-682 618 0
-682 -630 0
683 618 662 0
-683 -618 0
-683 -662 0
684 682 683 0
-684 -682 0
-684 -683 0
685 -618 636 0
-685 618 0
-685 -636 0
686 618 666 0
-686 -618 0
-686 -666 0
687 685 686 0
-687 -685 0
-687 -686 0
688 -618 642 0
-688 618 0
-688 -642 0
689 618 670 0
-689 -618 0
-689 -670 0
690 688 689 0
-690 -688 0
-690 -689 0
691 -618 648 0
-691 618 0
-691 -648 0
692 618 674 0
-692 -618 0
-692 -674 0
693 691 692 0
-693 -691 0
-693 -692 0
694 -618 654 0
-694 618 0
-694 -654 0
695 618 678 0
-695 -618 0
-695 -678 0
696 694 695 0
-696 -694 0
-696 -695 0
697 -681 -684 0
-697 681 0
-697 684 0
698 -687 -697 0
-698 687 0
-698 697 0
699 -690 -698 0
-699 690 0
-699 698 0
700 -693 -699 0
-700 693 0
-700 699 0
701 -696 -700 0
-701 696 0
-701 700 0
830 0
701 0

